n = 10; 

m=14; 


46	38	8	7	18	63	29	21	52	2
57	26	5	33	24	62	31	6	31	48
12	3	35	17	54	9	31	30	17	45
15	49	27	60	18	48	14	35	48	37
47	35	36	2	31	30	15	29	39	63
29	20	37	8	24	42	35	18	23	31
50	60	72	36	42	60	22	87	44	41
2	21	55	5	63	33	39	63	11	41
19	57	7	36	62	58	59	62	5	60
48	37	64	8	21	29	38	39	14	18
46	52	14	56	55	12	25	44	44	64
5	27	4	16	20	53	13	37	63	27
62	35	58	45	32	16	60	42	61	9
50	60	72	36	42	60	22	87	44	41
 
 
